8594
17, 7, 2, 42, 30, 29, 20, 50, 16, 44, 34, 35, 36, 37, 39, 40, 38, 5, 15, 4, 6, 48, 24, 46, 25, 12, 28, 27, 26, 13, 47, 14, 52, 11, 51, 33, 43, 45, 10, 9, 8, 41, 19, 3, 18, 32, 49, 1, 22, 23, 31, 21
